50
15067

374 137
559 465
556 340
656 886
583 581
294 683
64 359
180 628
397 572
411 222
653 455
142 95
567 633
248 267
35 267
328 32
708 180
458 931
860 18
581 909
536 114
859 407
704 748
673 270
385 133
191 555
156 562
514 429
941 981
173 436
929 224
829 455
2 595
429 697
902 937
671 187
138 4
204 510
985 589
246 692
727 232
363 338
182 495
70 482
306 643
845 116
458 977
452 956
689 591
465 28
